[-1
 -1
 -1
 -1
 -1
 -1
 -1
 -1
 -1
 -1
 -1
 -1
 -1
 -1
 -1
 -1
 -1
 -1
 -1
 -1
 -1
 -1
 9
 9
 9
 9
 9
 9
 9
 0
 9
 9
 9
 -1
 0
 9
 9
 9
 0
 9
 9
 9
 0
 -1
 -1
 0
 9
 9
 10
 0
 10
 10
 9
 -1
 -1
 10
 10
 9
 9
 9
 10
 9
 10
 -1
 -1
 0
 10
 9
 9
 9
 9
 10
 10
 -1
 9
 10
 10
 0
 0
 10
 10
 9
 -1
 -1
 0
 11
 11
 9
 0
 11
 10
 10
 -1
 -1
 9
 10
 10
 10
 10
 11
 12
 0
 -1
 -1
 -1
 9
 10
 10
 -1
 0
 11
 9
 9
 9
 -1
 1
 11
 9
 11
 -1
 12
 11
 10
 10
 12
 11
 12
 0
 -1
 11
 9
 11
 9
 12
 11
 10
 1
 -1
 10
 12
 10
 -1
 0
 11
 10
 11
 0
 11
 10
 10
 9
 13
 11
 12
 11]
